
Gurobi 12.0.3 (linux64) logging started Fri Mar 27 13:16:38 2026

Set parameter LogFile to value "/home/solar-wind/WT_Solar_results_bigM100000_thread4/case24_ieee_rts_theta0.15_epsilon0.1_gurobi_seed40000_num_gen38_N_WDR150_load_scaling_factor1_FICA_T24_num_Solar5_num_WT10.txt"
Gurobi Optimizer version 12.0.3 build v12.0.3rc0 (linux64 - "Ubuntu 22.04.5 LTS")

CPU model: Intel(R) Xeon(R) Platinum 8378A CPU @ 3.00GHz, instruction set [SSE2|AVX|AVX2|AVX512]
Thread count: 32 physical cores, 64 logical processors, using up to 4 threads

Non-default parameters:
TimeLimit  14400
MIPGap  0.001
Seed  40000
Threads  4

Academic license 2721591 - for non-commercial use only - registered to fa___@mails.neu.edu.cn
Optimize a model with 710724 rows, 1975 columns and 40599480 nonzeros
Model fingerprint: 0x1fd19cf2
Model has 912 quadratic objective terms
Coefficient statistics:
  Matrix range     [3e-07, 7e+01]
  Objective range  [2e+01, 6e+01]
  QObjective range [4e-03, 2e-02]
  Bounds range     [0e+00, 0e+00]
  RHS range        [3e-02, 1e+03]
Presolve removed 360039 rows and 0 columns
Presolve time: 4.55s
Presolved: 350685 rows, 2849 columns, 4202972 nonzeros
Presolved model has 912 quadratic objective terms
Elapsed ordering time = 10s
Elapsed ordering time = 34s
Ordering time: 72.01s
Elapsed ordering time = 72s
Elapsed ordering time = 75s
Elapsed ordering time = 84s
Elapsed ordering time = 85s
Elapsed ordering time = 90s
Elapsed ordering time = 97s
Elapsed ordering time = 101s
Elapsed ordering time = 105s
Elapsed ordering time = 111s
Elapsed ordering time = 115s
Elapsed ordering time = 124s
Elapsed ordering time = 125s
Elapsed ordering time = 130s
Elapsed ordering time = 137s
Elapsed ordering time = 141s
Elapsed ordering time = 145s
Ordering time: 150.27s

Barrier statistics:
 Dense cols : 973
 AA' NZ     : 4.219e+08
 Factor NZ  : 1.316e+09 (roughly 10.0 GB of memory)
 Factor Ops : 1.316e+13 (roughly 70 seconds per iteration)
 Threads    : 4

                  Objective                Residual
Iter       Primal          Dual         Primal    Dual     Compl     Time
   0   5.83343367e+08 -3.29197338e+08  3.80e+04 1.00e+03  9.95e+05   343s
   1   4.96500875e+08 -2.39576150e+08  3.42e+04 8.99e+02  8.96e+05   343s
   2   4.88128174e+08 -2.31462935e+08  3.38e+04 8.88e+02  8.86e+05   344s
   3   4.85402884e+08 -2.33736979e+08  3.37e+04 8.85e+02  8.82e+05   345s
   4   3.44730447e+08 -3.98591856e+08  2.70e+04 6.99e+02  7.00e+05   345s
   5   2.97807418e+08 -4.96966828e+08  2.45e+04 6.30e+02  6.55e+05   346s
   6   2.58337911e+08 -5.43381690e+08  2.21e+04 5.69e+02  5.93e+05   346s
   7   2.27585533e+08 -5.86772593e+08  2.02e+04 5.19e+02  5.41e+05   346s
   8   1.95467482e+08 -6.32983411e+08  1.81e+04 4.64e+02  4.85e+05   346s
   9   1.68913636e+08 -6.75437169e+08  1.62e+04 4.16e+02  4.35e+05   347s
  10   1.46233185e+08 -7.17930099e+08  1.45e+04 3.72e+02  3.90e+05   347s
  11   1.24773541e+08 -7.59390074e+08  1.29e+04 3.27e+02  3.44e+05   347s
  12   1.05521864e+08 -7.97800965e+08  1.13e+04 2.85e+02  3.00e+05   347s
  13   8.87538433e+07 -8.35852004e+08  9.88e+03 2.46e+02  2.60e+05   347s
  14   7.08077499e+07 -8.67794482e+08  8.23e+03 2.03e+02  2.16e+05   348s
  15   5.83678406e+07 -8.86967890e+08  6.99e+03 1.72e+02  1.84e+05   348s
  16   4.24117336e+07 -9.07003223e+08  5.31e+03 1.29e+02  1.41e+05   348s
  17   3.10140596e+07 -9.24824816e+08  4.01e+03 9.73e+01  1.07e+05   348s
  18   2.31253532e+07 -9.35499592e+08  3.06e+03 7.40e+01  8.26e+04   348s
  19   7.17516723e+06 -9.39617250e+08  1.37e+03 2.26e+01  3.33e+04   348s
  20   5.05850694e+06 -9.00336169e+08  1.09e+03 1.55e+01  2.32e+04   349s
  21   3.47618160e+06 -8.37945081e+08  7.37e+02 1.01e+01  1.55e+04   349s
  22   2.50858490e+06 -7.64597988e+08  4.89e+02 6.81e+00  1.07e+04   349s
  23   2.02125269e+06 -7.41906160e+08  3.61e+02 5.22e+00  8.66e+03   349s
  24   1.52767910e+06 -6.64032576e+08  2.40e+02 3.50e+00  5.97e+03   349s
  25   1.08639176e+06 -5.49735738e+08  1.29e+02 1.92e+00  3.51e+03   350s
  26   9.00408967e+05 -4.47217331e+08  7.75e+01 1.15e+00  2.24e+03   350s
  27   8.55188426e+05 -4.04289288e+08  6.41e+01 9.61e-01  1.88e+03   350s
  28   7.91586722e+05 -3.50214199e+08  4.54e+01 6.76e-01  1.45e+03   351s
  29   7.58068019e+05 -2.95378053e+08  3.52e+01 5.21e-01  1.14e+03   351s
  30   7.36026433e+05 -2.62444712e+08  2.76e+01 4.10e-01  9.56e+02   352s
  31   7.17777157e+05 -2.23870842e+08  2.15e+01 3.09e-01  7.73e+02   353s
  32   7.09189707e+05 -2.00260673e+08  1.85e+01 2.53e-01  6.71e+02   354s
  33   7.03756673e+05 -1.84475701e+08  1.64e+01 2.17e-01  6.05e+02   355s
  34   7.00479799e+05 -1.73827978e+08  1.49e+01 1.93e-01  5.63e+02   356s
  35   6.97241408e+05 -1.61883365e+08  1.33e+01 1.69e-01  5.17e+02   357s
  36   6.93702309e+05 -1.47429089e+08  1.13e+01 1.41e-01  4.63e+02   359s
  37   6.90673868e+05 -1.36466720e+08  9.23e+00 1.15e-01  4.23e+02   361s
  38   6.87828355e+05 -1.20751257e+08  7.52e+00 9.38e-02  3.73e+02   366s
  39   6.84711886e+05 -1.02997047e+08  5.74e+00 7.16e-02  3.18e+02   398s
  40   6.78458852e+05 -5.44793204e+07  2.00e+00 9.80e-01  1.60e+02   430s
  41   6.73191449e+05 -9.86563606e+05  1.58e-02 4.10e+00  4.69e+00   462s
  42   6.19905091e+05 -6.62503575e+03  6.45e-04 6.68e-01  1.77e+00   494s
  43   6.03008318e+05  4.29443858e+05  6.42e-05 3.74e-02  4.90e-01   528s
  44   5.93131530e+05  5.52848689e+05  6.22e-06 3.62e-03  1.14e-01   585s
  45   5.90532910e+05  5.75775604e+05  8.01e-07 4.67e-04  4.16e-02   643s
  46   5.89964685e+05  5.81746802e+05  9.57e-08 5.58e-05  2.32e-02   701s
  47   5.89644555e+05  5.85651981e+05  2.52e-09 1.47e-06  1.13e-02   760s
  48   5.89462784e+05  5.87937049e+05  1.61e-10 4.33e-08  4.31e-03   820s
  49   5.89402586e+05  5.88711249e+05  6.55e-10 6.90e-09  1.95e-03   876s
  50   5.89362057e+05  5.89233298e+05  3.59e-10 1.59e-09  3.63e-04   937s
  51   5.89355919e+05  5.89308428e+05  5.68e-10 3.22e-12  1.34e-04  1001s
  52   5.89354274e+05  5.89329209e+05  7.68e-09 1.15e-10  7.07e-05  1057s
  53   5.89352498e+05  5.89352054e+05  1.45e-08 1.01e-10  1.25e-06  1119s
  54   5.89352464e+05  5.89352463e+05  3.14e-09 6.95e-10  3.42e-09  1174s

Barrier solved model in 54 iterations and 1174.15 seconds (1440.82 work units)
Optimal objective 5.89352464e+05

